NAME: cum80.tsp
TYPE: TSP
COMMENT: User-generated TSP file
DIMENSION: 80
EDGE_WEIGHT_TYPE: EUC_2D
NODE_COORD_SECTION
1 53.0 27.0
2 20.0 93.0
3 10.0 77.0
4 74.0 27.0
5 90.0 64.0
6 68.0 38.0
7 33.0 87.0
8 64.0 45.0
9 43.0 67.0
10 50.0 49.0
11 50.0 7.0
12 56.0 68.0
13 55.0 95.0
14 91.0 88.0
15 55.0 92.0
16 18.0 82.0
17 35.0 21.0
18 97.0 6.0
19 61.0 14.0
20 14.0 60.0
21 74.0 89.0
22 49.0 76.0
23 99.0 39.0
24 5.0 25.0
25 8.0 64.0
26 60.0 99.0
27 67.0 41.0
28 8.0 52.0
29 15.0 25.0
30 40.0 97.0
31 14.0 3.0
32 21.0 85.0
33 56.0 16.0
34 39.0 51.0
35 13.0 6.0
36 91.0 6.0
37 48.0 84.0
38 18.0 11.0
39 60.0 43.0
40 39.0 68.0
41 3.0 100.0
42 20.0 50.0
43 20.0 71.0
44 95.0 8.0
45 26.0 100.0
46 9.0 21.0
47 96.0 88.0
48 57.0 50.0
49 27.0 34.0
50 57.0 21.0
51 83.0 81.0
52 11.0 48.0
53 88.0 49.0
54 75.0 94.0
55 29.0 38.0
56 18.0 30.0
57 33.0 35.0
58 54.0 72.0
59 25.0 4.0
60 46.0 91.0
61 41.0 42.0
62 98.0 81.0
63 53.0 75.0
64 95.0 25.0
65 82.0 83.0
66 37.0 15.0
67 47.0 4.0
68 50.0 76.0
69 16.0 21.0
70 74.0 23.0
71 82.0 85.0
72 8.0 37.0
73 86.0 6.0
74 6.0 55.0
75 22.0 48.0
76 43.0 55.0
77 37.0 72.0
78 86.0 12.0
79 80.0 14.0
80 92.0 14.0
EOF

